InboundTrucks  = 12;
OutboundTrucks = 8;
InboundDoors   = 2;
OutboundDoors  = 1;
ReleaseTime    = [30,19,29,26,10,23,14,33,29,1,24,15];
UnloadTime     = [8,8,5,6,4,4,10,3,8,9,6,7];
LoadTime       = [10,7,5,1,2,2,4,5];
TransferTime   = [| 4,1,5,1,1,2,3,5 | 4,1,3,4,5,2,3,5 | 4,2,5,5,1,2,5,3 | 2,5,5,2,4,4,2,5 | 2,1,3,5,1,5,1,5 | 3,1,4,1,4,5,5,2 | 3,1,1,5,1,3,3,3 | 4,4,3,5,2,3,1,1 | 5,2,4,4,1,2,3,4 | 5,5,2,4,3,4,3,2 | 1,4,5,3,4,1,5,3 | 3,1,5,4,4,3,3,1 |];
